+243+272+245+234+248+250+253+256+220+233+229+249+240+252+239+254+257+246+235+236+229+233+246+244+241+242+263+245+216+265+256+272+243+246+236+235+257+243+280+229+247+225+239+250+219+283+280+238+241+236+266+289+249+252+264+244+246+256+238+268+244+231+243+253+234+255+240+221+252+220+214+245+244+244+258+248+261+252+246+252+232+248+286+255+241+235+238+235+233+233+228+255+275+275+271+237+243+242+252+246